Version identifier: 22.1.0.0 | 2022-03-09 | 1a383f8ce
CPXPARAM_Threads                                 1
CPXPARAM_MIP_Strategy_VariableSelect             3
CPXPARAM_TimeLimit                               599.99998357000004
1 of 1 MIP starts provided solutions.
MIP start 'm1' defined initial solution with objective 1.0000.
Tried aggregator 2 times.
MIP Presolve eliminated 41 rows and 1 columns.
MIP Presolve added 28 rows and 7 columns.
MIP Presolve modified 160 coefficients.
Aggregator did 7 substitutions.
Reduced MIP has 901 rows, 2100 columns, and 24679 nonzeros.
Reduced MIP has 2100 binaries, 0 generals, 0 SOSs, and 0 indicators.
Presolve time = 0.05 sec. (59.48 ticks)
Probing time = 0.01 sec. (7.11 ticks)
Tried aggregator 1 time.
Detecting symmetries...
MIP Presolve modified 14 coefficients.
Reduced MIP has 901 rows, 2100 columns, and 25020 nonzeros.
Reduced MIP has 2100 binaries, 0 generals, 0 SOSs, and 0 indicators.
Presolve time = 0.03 sec. (29.05 ticks)
Probing time = 0.01 sec. (7.15 ticks)
Clique table members: 785.
MIP emphasis: balance optimality and feasibility.
MIP search method: dynamic search.
Parallel mode: none, using 1 thread.
Root relaxation solution time = 0.21 sec. (210.65 ticks)

        Nodes                                         Cuts/
   Node  Left     Objective  IInf  Best Integer    Best Bound    ItCnt     Gap

*     0+    0                            1.0000     5050.0000              --- 
      0     0      100.0000   409        1.0000      100.0000     1975     --- 
      0     0      100.0000   187        1.0000    Cliques: 4     2026     --- 
      0     0      100.0000   316        1.0000     Cuts: 110     2953     --- 
      0     0      100.0000   140        1.0000    Cliques: 3     3185     --- 
*     0+    0                           69.0000      100.0000            44.93%
*     0+    0                           90.0000      100.0000            11.11%
      0     0        cutoff             90.0000      100.0000     3185   11.11%
      0     0      100.0000   277       90.0000      Cuts: 53     3708   11.11%
*     0+    0                           93.0000      100.0000             7.53%
      0     0        cutoff             93.0000      100.0000     3708    7.53%
Detecting symmetries...
      0     2      100.0000   126       93.0000      100.0000     3708    7.53%
Elapsed time = 4.18 sec. (3953.87 ticks, tree = 0.01 MB, solutions = 4)
      1     3      100.0000   179       93.0000      100.0000     6393    7.53%
      3     5      100.0000   415       93.0000      100.0000     8932    7.53%
      6     8      100.0000   170       93.0000      100.0000     9240    7.53%
      9    11      100.0000   143       93.0000      100.0000     9661    7.53%
     11    13      100.0000   182       93.0000      100.0000    10912    7.53%
     14    16      100.0000   208       93.0000      100.0000    11468    7.53%
     17    19      100.0000   162       93.0000      100.0000    12150    7.53%
     20    22      100.0000   156       93.0000      100.0000    12828    7.53%
     24    26      100.0000   293       93.0000      100.0000    14298    7.53%
     32    34      100.0000   165       93.0000      100.0000    16229    7.53%
Elapsed time = 8.27 sec. (7815.62 ticks, tree = 0.21 MB, solutions = 4)
     44    46      100.0000   156       93.0000      100.0000    18616    7.53%
     57    59      100.0000   197       93.0000      100.0000    22336    7.53%
     72    74      100.0000   178       93.0000      100.0000    28082    7.53%
     86    88      100.0000   129       93.0000      100.0000    31030    7.53%
    103   105      100.0000   142       93.0000      100.0000    34400    7.53%
    120   117      100.0000   135       93.0000      100.0000    38561    7.53%
    144   133       98.0000    97       93.0000      100.0000    42232    7.53%
    168   141      100.0000   185       93.0000      100.0000    46632    7.53%
    187   159      100.0000   123       93.0000      100.0000    50250    7.53%
    210   172        cutoff             93.0000      100.0000    55445    7.53%
Elapsed time = 19.08 sec. (17567.10 ticks, tree = 1.36 MB, solutions = 4)
    241   179       99.0000   134       93.0000      100.0000    60553    7.53%
    263   187       99.0000   131       93.0000      100.0000    65922    7.53%
    284   198       99.0000   116       93.0000      100.0000    69278    7.53%
    316   210       99.0000   115       93.0000      100.0000    73682    7.53%
    347   226       99.0000   138       93.0000      100.0000    77304    7.53%
    376   234       99.0000   143       93.0000      100.0000    81574    7.53%
*   409   237      integral     0       95.0000      100.0000    83766    5.26%
    415   239       98.5000   135       95.0000      100.0000    85242    5.26%
    444   249       99.0000   106       95.0000      100.0000    90501    5.26%
    473   264       96.0000    84       95.0000      100.0000    94529    5.26%
*   498   258      integral     0       97.0000      100.0000    98202    3.09%
    502   260       99.0000   124       97.0000      100.0000    99153    3.09%
Elapsed time = 30.29 sec. (27272.42 ticks, tree = 2.10 MB, solutions = 6)
    530   268      100.0000   103       97.0000      100.0000   106008    3.09%
    557   278      100.0000   121       97.0000      100.0000   111088    3.09%
    579   298       99.0000   121       97.0000      100.0000   113560    3.09%
    604   311      100.0000   109       97.0000      100.0000   117408    3.09%
    633   317      100.0000    96       97.0000      100.0000   124971    3.09%
    658   324       99.0000   115       97.0000      100.0000   132144    3.09%
    692   328      100.0000    60       97.0000      100.0000   139045    3.09%
    722   337       99.0000   100       97.0000      100.0000   146319    3.09%
    758   345       99.0000   116       97.0000      100.0000   151584    3.09%
    794   351    infeasible             97.0000      100.0000   157849    3.09%
Elapsed time = 41.51 sec. (37058.50 ticks, tree = 2.87 MB, solutions = 6)
    827   357      100.0000    98       97.0000      100.0000   163457    3.09%
    857   360       99.0000   181       97.0000      100.0000   170031    3.09%
    879   378       99.0000   152       97.0000      100.0000   172799    3.09%
    910   385      100.0000   124       97.0000      100.0000   179394    3.09%
    935   401      100.0000    97       97.0000      100.0000   183630    3.09%
    970   406       99.0000    79       97.0000      100.0000   188940    3.09%
   1002   420       99.0000    55       97.0000      100.0000   193036    3.09%
*  1026     1      integral     0      100.0000      100.0000   197264    0.00%

Clique cuts applied:  45
Zero-half cuts applied:  3

Root node processing (before b&c):
  Real time             =    4.17 sec. (3945.41 ticks)
Sequential b&c:
  Real time             =   45.83 sec. (40720.83 ticks)
                          ------------
Total (root+branch&cut) =   50.00 sec. (44666.24 ticks)
Primal:	100
Dual:	100
Status:	Optimal
Time:	49.99
Sequence:
	4
	6
	17
	1
	14
	11
	16
	2
	6
	5
	2
	13
	10
	12
	3
	5
	19
	8
	10
	12
	3
	5
	12
	14
	16
	12
	0
	4
	11
	19
	3
	7
	19
	4
	9
	19
	8
	16
	0
	2
	16
	11
	0
	4
	19
	7
	9
	14
	7
	1
	3
	11
	15
	7
	3
	1
	11
	8
	0
	16
	2
	11
	17
	1
	8
	9
	10
	2
	17
	11
	15
	0
	14
	16
	19
	8
	9
	12
	10
	18
	9
	15
	13
	18
	1
	9
	13
	15
	18
	9
	19
	4
	17
	19
	6
	16
	12
	11
	3
	15
